(declare-const v0 Bool)
(declare-const r1 Real)
(declare-const r3 Real)
(declare-const v7 Bool)
(declare-const v8 Bool)
(declare-const r8 Real)
(assert (or v8 (= true v8 v8 (>= r8 (* r3 r3 r1 r1) 44487970 r1) v7 v7 v8 v0) v8 v0 v7 v7))
(push)
(assert (= true true (= (xor true v8 v7 (>= r8 (* r3 r3 r1 r1) 44487970 r1) v7 v0 v0) v8 v8 true v7 v7 v8 v0) (>= 1777358560 r1 (* r3 r3 r1 r1))))
(check-sat)
(pop)
(check-sat)
